33D32945 STP File, STP Format Version 1.0

SECTION Comment
Name "i640-004-PCST"
Creator "Indaco Biazzo" 
Remark "derived from Incidence graph by Cees Duin"
END

SECTION Graph
Nodes 640
Edges 960
E 1 43 196.000000
E 1 149 210.000000
E 1 170 199.000000
E 1 241 200.000000
E 1 341 200.000000
E 1 442 199.000000
E 1 478 205.000000
E 1 533 194.000000
E 1 542 199.000000
E 1 551 199.000000
E 2 331 199.000000
E 2 465 197.000000
E 3 60 202.000000
E 3 138 195.000000
E 3 144 205.000000
E 3 179 196.000000
E 3 618 208.000000
E 4 460 193.000000
E 5 182 204.000000
E 5 223 200.000000
E 5 529 211.000000
E 5 539 202.000000
E 5 585 198.000000
E 6 67 205.000000
E 6 510 203.000000
E 7 264 202.000000
E 8 151 197.000000
E 8 329 199.000000
E 9 412 198.000000
E 9 583 196.000000
E 10 156 92.000000
E 11 38 104.000000
E 11 75 93.000000
E 11 166 87.000000
E 11 457 88.000000
E 11 591 94.000000
E 12 440 98.000000
E 12 557 90.000000
E 13 181 92.000000
E 13 261 100.000000
E 13 479 94.000000
E 14 392 87.000000
E 14 400 99.000000
E 14 443 95.000000
E 14 576 96.000000
E 14 640 109.000000
E 15 561 102.000000
E 16 444 91.000000
E 16 596 94.000000
E 17 57 98.000000
E 17 554 103.000000
E 17 628 108.000000
E 18 53 102.000000
E 18 228 101.000000
E 18 255 99.000000
E 18 315 105.000000
E 18 442 96.000000
E 19 21 103.000000
E 19 137 104.000000
E 19 553 93.000000
E 19 614 94.000000
E 20 75 93.000000
E 20 126 95.000000
E 20 240 98.000000
E 20 334 100.000000
E 20 375 111.000000
E 20 440 104.000000
E 20 632 95.000000
E 21 165 96.000000
E 22 179 101.000000
E 22 221 99.000000
E 23 133 103.000000
E 23 226 91.000000
E 23 337 100.000000
E 23 489 104.000000
E 23 511 98.000000
E 23 592 104.000000
E 24 59 105.000000
E 24 109 106.000000
E 24 192 87.000000
E 24 252 105.000000
E 24 337 97.000000
E 24 376 99.000000
E 24 424 102.000000
E 24 437 93.000000
E 24 464 102.000000
E 24 465 107.000000
E 24 548 102.000000
E 25 244 91.000000
E 25 361 107.000000
E 25 583 94.000000
E 26 143 103.000000
E 26 561 103.000000
E 27 237 92.000000
E 28 356 99.000000
E 28 464 99.000000
E 28 541 90.000000
E 29 235 105.000000
E 29 337 105.000000
E 29 453 111.000000
E 29 484 99.000000
E 29 606 99.000000
E 30 389 98.000000
E 31 325 92.000000
E 31 359 97.000000
E 32 53 98.000000
E 33 190 96.000000
E 33 290 101.000000
E 33 471 105.000000
E 34 52 100.000000
E 34 265 92.000000
E 34 552 95.000000
E 34 601 96.000000
E 35 568 102.000000
E 36 105 97.000000
E 36 166 100.000000
E 36 262 95.000000
E 36 582 103.000000
E 36 609 94.000000
E 36 615 92.000000
E 37 184 107.000000
E 37 282 92.000000
E 38 540 104.000000
E 39 137 98.000000
E 39 362 93.000000
E 39 391 102.000000
E 39 511 93.000000
E 39 577 98.000000
E 40 604 102.000000
E 41 72 95.000000
E 41 92 97.000000
E 41 162 106.000000
E 41 383 102.000000
E 42 388 98.000000
E 43 246 103.000000
E 43 296 97.000000
E 43 565 97.000000
E 43 617 100.000000
E 44 65 94.000000
E 44 129 106.000000
E 44 414 97.000000
E 45 133 104.000000
E 46 82 110.000000
E 47 156 101.000000
E 47 295 108.000000
E 48 66 106.000000
E 48 248 95.000000
E 48 518 103.000000
E 49 359 103.000000
E 50 174 98.000000
E 50 347 106.000000
E 50 389 103.000000
E 50 521 99.000000
E 51 261 93.000000
E 51 492 107.000000
E 52 60 99.000000
E 52 83 103.000000
E 52 124 106.000000
E 52 332 105.000000
E 52 337 95.000000
E 52 487 101.000000
E 52 625 105.000000
E 53 111 94.000000
E 54 137 102.000000
E 54 152 102.000000
E 54 186 102.000000
E 54 326 100.000000
E 54 419 96.000000
E 54 602 108.000000
E 54 618 100.000000
E 55 154 96.000000
E 55 195 99.000000
E 55 401 99.000000
E 55 493 102.000000
E 56 495 106.000000
E 56 508 96.000000
E 57 296 95.000000
E 58 383 97.000000
E 58 444 101.000000
E 58 475 99.000000
E 59 116 98.000000
E 59 130 102.000000
E 59 602 95.000000
E 59 635 104.000000
E 60 280 96.000000
E 60 290 100.000000
E 61 86 92.000000
E 61 93 96.000000
E 61 257 95.000000
E 61 528 96.000000
E 62 368 105.000000
E 62 381 100.000000
E 63 186 98.000000
E 64 106 100.000000
E 64 627 97.000000
E 65 156 94.000000
E 66 104 103.000000
E 66 576 99.000000
E 67 144 94.000000
E 68 112 107.000000
E 69 496 104.000000
E 70 289 105.000000
E 70 298 96.000000
E 70 440 99.000000
E 70 483 98.000000
E 70 491 107.000000
E 71 84 90.000000
E 71 121 101.000000
E 71 279 102.000000
E 72 118 102.000000
E 72 351 95.000000
E 72 504 97.000000
E 73 116 106.000000
E 73 517 107.000000
E 74 312 101.000000
E 74 510 104.000000
E 75 132 100.000000
E 75 224 95.000000
E 75 276 101.000000
E 75 594 109.000000
E 76 94 98.000000
E 76 205 110.000000
E 76 435 97.000000
E 77 339 94.000000
E 77 394 110.000000
E 77 542 104.000000
E 78 241 105.000000
E 78 408 101.000000
E 78 514 97.000000
E 78 549 97.000000
E 79 346 94.000000
E 79 568 93.000000
E 80 128 104.000000
E 80 210 100.000000
E 80 400 99.000000
E 80 441 101.000000
E 80 460 101.000000
E 80 486 97.000000
E 81 176 93.000000
E 81 255 104.000000
E 81 300 95.000000
E 81 451 94.000000
E 81 597 99.000000
E 82 599 101.000000
E 82 627 101.000000
E 83 88 90.000000
E 83 553 97.000000
E 83 623 102.000000
E 84 400 101.000000
E 85 195 92.000000
E 85 250 96.000000
E 85 278 93.000000
E 85 320 92.000000
E 85 379 105.000000
E 85 550 96.000000
E 86 482 112.000000
E 86 527 97.000000
E 87 197 97.000000
E 87 244 108.000000
E 87 343 93.000000
E 88 208 94.000000
E 88 511 101.000000
E 89 98 100.000000
E 89 455 104.000000
E 89 485 94.000000
E 90 274 96.000000
E 90 447 103.000000
E 91 192 97.000000
E 91 471 100.000000
E 91 534 90.000000
E 91 557 103.000000
E 92 325 102.000000
E 92 360 91.000000
E 93 282 90.000000
E 93 311 96.000000
E 93 448 103.000000
E 95 471 98.000000
E 96 343 102.000000
E 96 392 103.000000
E 96 510 91.000000
E 96 551 92.000000
E 97 321 100.000000
E 97 459 93.000000
E 98 399 94.000000
E 98 407 106.000000
E 99 331 99.000000
E 99 479 108.000000
E 100 329 104.000000
E 100 531 107.000000
E 101 330 89.000000
E 101 511 95.000000
E 102 351 103.000000
E 102 457 100.000000
E 103 104 104.000000
E 104 298 105.000000
E 106 203 102.000000
E 106 337 101.000000
E 107 148 94.000000
E 107 153 99.000000
E 108 456 105.000000
E 108 504 110.000000
E 109 392 100.000000
E 110 408 104.000000
E 111 574 95.000000
E 112 208 109.000000
E 112 579 104.000000
E 112 604 98.000000
E 113 287 103.000000
E 113 490 94.000000
E 114 168 100.000000
E 114 407 103.000000
E 114 442 92.000000
E 114 452 98.000000
E 115 436 98.000000
E 116 387 101.000000
E 116 534 101.000000
E 117 174 98.000000
E 117 187 99.000000
E 117 192 92.000000
E 117 213 93.000000
E 119 326 100.000000
E 119 619 105.000000
E 119 635 100.000000
E 120 260 100.000000
E 120 354 91.000000
E 120 458 102.000000
E 120 636 95.000000
E 121 133 87.000000
E 121 331 96.000000
E 121 455 99.000000
E 121 599 98.000000
E 122 236 105.000000
E 122 296 94.000000
E 123 627 94.000000
E 124 155 106.000000
E 124 406 104.000000
E 125 144 113.000000
E 127 356 97.000000
E 127 401 106.000000
E 127 539 97.000000
E 129 366 100.000000
E 131 417 106.000000
E 131 548 113.000000
E 132 181 103.000000
E 132 235 102.000000
E 132 356 96.000000
E 133 141 97.000000
E 133 436 97.000000
E 133 441 97.000000
E 134 193 99.000000
E 134 368 103.000000
E 134 516 104.000000
E 134 622 107.000000
E 134 629 102.000000
E 135 423 103.000000
E 135 608 99.000000
E 136 165 96.000000
E 136 407 94.000000
E 137 263 96.000000
E 137 382 98.000000
E 137 403 92.000000
E 139 267 93.000000
E 139 456 104.000000
E 139 633 104.000000
E 140 271 98.000000
E 140 495 96.000000
E 141 531 100.000000
E 142 165 98.000000
E 143 159 102.000000
E 144 563 93.000000
E 145 224 107.000000
E 145 249 101.000000
E 145 317 107.000000
E 145 608 112.000000
E 146 378 99.000000
E 146 383 100.000000
E 146 571 104.000000
E 147 437 99.000000
E 148 319 99.000000
E 148 357 95.000000
E 149 363 96.000000
E 149 549 98.000000
E 149 622 97.000000
E 150 199 99.000000
E 150 335 97.000000
E 150 561 99.000000
E 150 632 95.000000
E 151 249 100.000000
E 151 294 97.000000
E 151 430 96.000000
E 151 453 96.000000
E 153 159 103.000000
E 154 254 103.000000
E 154 392 106.000000
E 154 431 96.000000
E 154 470 95.000000
E 154 578 101.000000
E 156 398 105.000000
E 156 428 94.000000
E 156 432 104.000000
E 157 279 103.000000
E 157 318 94.000000
E 157 480 99.000000
E 158 532 97.000000
E 158 585 99.000000
E 159 218 110.000000
E 160 309 96.000000
E 160 350 86.000000
E 160 515 101.000000
E 160 596 100.000000
E 161 398 103.000000
E 161 578 104.000000
E 162 437 99.000000
E 162 483 95.000000
E 163 233 105.000000
E 163 281 97.000000
E 163 358 106.000000
E 164 276 100.000000
E 164 287 96.000000
E 164 389 104.000000
E 165 216 93.000000
E 165 299 101.000000
E 165 386 105.000000
E 165 624 89.000000
E 166 352 99.000000
E 166 576 99.000000
E 167 463 106.000000
E 167 490 100.000000
E 168 339 100.000000
E 168 564 98.000000
E 168 610 95.000000
E 169 267 97.000000
E 169 385 99.000000
E 171 185 94.000000
E 171 294 101.000000
E 171 298 98.000000
E 171 477 99.000000
E 171 491 89.000000
E 172 426 90.000000
E 172 533 98.000000
E 173 213 100.000000
E 173 263 104.000000
E 173 385 106.000000
E 173 574 98.000000
E 174 411 95.000000
E 174 485 95.000000
E 175 392 102.000000
E 175 415 93.000000
E 175 464 99.000000
E 175 568 103.000000
E 175 627 96.000000
E 177 203 102.000000
E 177 314 103.000000
E 178 249 101.000000
E 178 505 99.000000
E 178 516 109.000000
E 178 578 100.000000
E 180 251 101.000000
E 180 318 92.000000
E 180 328 96.000000
E 181 198 99.000000
E 181 266 100.000000
E 182 399 99.000000
E 183 391 98.000000
E 183 457 98.000000
E 184 213 111.000000
E 184 306 101.000000
E 184 410 106.000000
E 184 443 96.000000
E 184 629 101.000000
E 185 188 98.000000
E 185 302 104.000000
E 186 313 101.000000
E 186 378 112.000000
E 186 501 98.000000
E 186 569 102.000000
E 187 273 98.000000
E 187 435 101.000000
E 187 494 106.000000
E 187 543 103.000000
E 188 193 108.000000
E 188 352 104.000000
E 189 423 96.000000
E 189 428 110.000000
E 189 467 101.000000
E 189 629 106.000000
E 191 306 102.000000
E 191 331 96.000000
E 191 445 108.000000
E 192 286 102.000000
E 192 317 88.000000
E 192 347 95.000000
E 192 389 100.000000
E 192 481 100.000000
E 192 497 101.000000
E 194 624 95.000000
E 195 216 99.000000
E 195 342 103.000000
E 195 396 89.000000
E 195 423 102.000000
E 195 523 99.000000
E 195 545 101.000000
E 195 578 102.000000
E 196 215 95.000000
E 196 321 99.000000
E 196 574 104.000000
E 197 633 100.000000
E 198 509 97.000000
E 199 268 99.000000
E 199 324 95.000000
E 199 540 101.000000
E 199 583 95.000000
E 200 408 107.000000
E 200 465 99.000000
E 200 590 103.000000
E 201 382 95.000000
E 201 545 100.000000
E 202 427 92.000000
E 202 568 104.000000
E 203 620 97.000000
E 204 299 94.000000
E 204 398 99.000000
E 206 514 94.000000
E 206 530 95.000000
E 206 631 101.000000
E 207 295 107.000000
E 207 551 98.000000
E 208 425 101.000000
E 209 235 99.000000
E 209 292 102.000000
E 209 456 92.000000
E 210 339 99.000000
E 211 216 99.000000
E 211 480 92.000000
E 212 229 107.000000
E 212 361 103.000000
E 212 397 105.000000
E 212 601 101.000000
E 212 626 101.000000
E 213 333 98.000000
E 213 529 96.000000
E 214 506 99.000000
E 214 638 91.000000
E 216 464 105.000000
E 216 532 99.000000
E 217 593 106.000000
E 217 602 95.000000
E 218 246 97.000000
E 218 586 97.000000
E 218 606 94.000000
E 219 412 111.000000
E 219 544 98.000000
E 220 478 99.000000
E 220 581 97.000000
E 221 366 104.000000
E 221 406 98.000000
E 221 425 102.000000
E 221 513 104.000000
E 221 592 93.000000
E 222 257 95.000000
E 223 245 103.000000
E 223 417 103.000000
E 223 561 99.000000
E 225 312 95.000000
E 227 353 87.000000
E 227 376 93.000000
E 227 384 94.000000
E 227 501 106.000000
E 228 487 97.000000
E 228 568 102.000000
E 228 634 90.000000
E 229 571 96.000000
E 230 383 100.000000
E 230 571 104.000000
E 230 613 106.000000
E 231 495 99.000000
E 232 568 94.000000
E 234 236 110.000000
E 234 249 103.000000
E 234 602 101.000000
E 235 457 101.000000
E 237 283 108.000000
E 237 386 93.000000
E 237 442 100.000000
E 237 587 101.000000
E 237 603 99.000000
E 238 268 98.000000
E 238 579 104.000000
E 239 310 94.000000
E 239 423 109.000000
E 240 398 98.000000
E 240 441 91.000000
E 240 445 100.000000
E 240 586 104.000000
E 241 383 101.000000
E 242 303 107.000000
E 242 627 97.000000
E 243 328 99.000000
E 244 281 105.000000
E 244 400 98.000000
E 244 478 106.000000
E 245 269 94.000000
E 245 410 103.000000
E 245 596 92.000000
E 246 322 95.000000
E 246 421 97.000000
E 246 598 100.000000
E 247 371 102.000000
E 247 568 94.000000
E 248 285 101.000000
E 248 599 101.000000
E 248 638 92.000000
E 249 262 100.000000
E 249 350 105.000000
E 250 437 102.000000
E 251 456 101.000000
E 251 549 107.000000
E 252 313 98.000000
E 253 575 109.000000
E 254 395 96.000000
E 256 282 101.000000
E 256 318 107.000000
E 256 323 97.000000
E 256 355 99.000000
E 256 389 102.000000
E 257 336 98.000000
E 257 523 98.000000
E 257 526 105.000000
E 258 293 99.000000
E 258 542 99.000000
E 259 496 91.000000
E 261 357 90.000000
E 261 552 109.000000
E 262 477 111.000000
E 264 323 99.000000
E 267 397 104.000000
E 268 314 98.000000
E 268 502 95.000000
E 268 627 104.000000
E 269 498 94.000000
E 270 510 99.000000
E 270 627 101.000000
E 272 421 91.000000
E 272 540 103.000000
E 273 333 96.000000
E 273 420 102.000000
E 273 616 91.000000
E 274 276 89.000000
E 274 597 98.000000
E 274 603 100.000000
E 275 377 103.000000
E 275 450 100.000000
E 275 495 103.000000
E 275 508 93.000000
E 276 277 106.000000
E 276 509 94.000000
E 278 337 104.000000
E 278 522 99.000000
E 278 523 104.000000
E 279 301 106.000000
E 279 481 107.000000
E 280 617 89.000000
E 282 315 98.000000
E 283 344 99.000000
E 283 390 100.000000
E 284 390 94.000000
E 284 471 101.000000
E 285 490 108.000000
E 285 544 102.000000
E 286 349 102.000000
E 286 390 95.000000
E 288 393 98.000000
E 288 623 98.000000
E 288 634 101.000000
E 289 521 97.000000
E 290 409 95.000000
E 290 424 101.000000
E 290 452 98.000000
E 291 296 101.000000
E 291 406 99.000000
E 293 433 98.000000
E 293 556 107.000000
E 295 371 95.000000
E 295 562 90.000000
E 297 378 92.000000
E 297 609 97.000000
E 298 533 101.000000
E 298 604 100.000000
E 299 416 99.000000
E 300 497 101.000000
E 301 519 100.000000
E 304 546 95.000000
E 304 635 99.000000
E 305 552 97.000000
E 306 344 93.000000
E 306 529 105.000000
E 307 477 99.000000
E 308 574 103.000000
E 308 627 101.000000
E 309 383 111.000000
E 310 538 105.000000
E 312 441 104.000000
E 312 498 100.000000
E 313 347 103.000000
E 313 575 96.000000
E 313 620 107.000000
E 314 334 107.000000
E 314 368 105.000000
E 314 373 102.000000
E 314 375 97.000000
E 315 374 103.000000
E 316 537 100.000000
E 316 603 109.000000
E 317 434 98.000000
E 317 478 95.000000
E 317 558 100.000000
E 318 364 102.000000
E 319 457 101.000000
E 319 614 100.000000
E 320 414 93.000000
E 320 478 90.000000
E 321 343 96.000000
E 321 524 99.000000
E 321 561 105.000000
E 321 566 97.000000
E 322 487 104.000000
E 322 571 100.000000
E 323 357 107.000000
E 323 571 107.000000
E 324 423 97.000000
E 324 624 104.000000
E 324 631 104.000000
E 325 441 103.000000
E 325 454 96.000000
E 325 612 104.000000
E 326 371 100.000000
E 326 529 105.000000
E 327 396 99.000000
E 328 458 98.000000
E 328 518 93.000000
E 328 562 106.000000
E 329 413 96.000000
E 329 429 105.000000
E 329 515 94.000000
E 329 539 107.000000
E 330 453 94.000000
E 333 380 104.000000
E 333 485 92.000000
E 333 503 97.000000
E 333 519 100.000000
E 333 592 98.000000
E 334 461 103.000000
E 334 580 95.000000
E 335 338 97.000000
E 336 500 102.000000
E 336 607 107.000000
E 337 476 108.000000
E 337 478 107.000000
E 337 492 91.000000
E 337 561 93.000000
E 338 515 100.000000
E 339 342 95.000000
E 339 478 101.000000
E 339 524 95.000000
E 339 637 98.000000
E 340 476 103.000000
E 340 538 100.000000
E 341 353 97.000000
E 343 403 100.000000
E 343 621 95.000000
E 345 471 90.000000
E 345 580 99.000000
E 346 508 105.000000
E 348 550 98.000000
E 348 568 98.000000
E 351 535 111.000000
E 353 525 99.000000
E 354 623 95.000000
E 359 382 93.000000
E 359 481 98.000000
E 360 487 100.000000
E 361 403 95.000000
E 362 443 96.000000
E 362 454 102.000000
E 362 578 99.000000
E 362 627 96.000000
E 363 366 97.000000
E 363 588 92.000000
E 365 538 92.000000
E 365 587 97.000000
E 367 414 95.000000
E 367 517 104.000000
E 368 474 95.000000
E 368 603 99.000000
E 369 523 97.000000
E 370 518 100.000000
E 371 420 98.000000
E 371 506 96.000000
E 372 635 105.000000
E 373 393 97.000000
E 375 396 98.000000
E 375 442 94.000000
E 375 592 97.000000
E 375 598 94.000000
E 377 498 95.000000
E 377 525 103.000000
E 378 506 96.000000
E 378 539 98.000000
E 378 616 104.000000
E 378 637 94.000000
E 379 404 101.000000
E 381 488 99.000000
E 382 507 105.000000
E 383 432 101.000000
E 383 455 112.000000
E 383 567 92.000000
E 383 570 96.000000
E 384 463 96.000000
E 385 392 108.000000
E 386 520 106.000000
E 388 561 105.000000
E 389 434 98.000000
E 389 466 97.000000
E 391 469 108.000000
E 392 472 98.000000
E 392 497 93.000000
E 393 602 101.000000
E 394 396 100.000000
E 395 428 98.000000
E 395 633 96.000000
E 396 447 99.000000
E 397 577 103.000000
E 397 602 92.000000
E 397 637 103.000000
E 399 595 97.000000
E 400 450 100.000000
E 401 577 95.000000
E 402 568 99.000000
E 404 471 98.000000
E 405 542 101.000000
E 405 556 91.000000
E 405 611 106.000000
E 407 418 102.000000
E 408 487 102.000000
E 408 620 99.000000
E 409 483 107.000000
E 409 510 97.000000
E 410 439 95.000000
E 410 539 91.000000
E 411 530 102.000000
E 412 631 102.000000
E 414 599 96.000000
E 415 493 97.000000
E 415 537 99.000000
E 417 512 94.000000
E 418 439 101.000000
E 419 478 107.000000
E 420 499 94.000000
E 421 586 103.000000
E 422 587 98.000000
E 426 626 93.000000
E 429 515 91.000000
E 429 552 104.000000
E 430 449 102.000000
E 432 471 96.000000
E 432 511 103.000000
E 433 479 92.000000
E 434 480 97.000000
E 434 501 101.000000
E 434 546 90.000000
E 436 631 96.000000
E 437 473 99.000000
E 437 482 99.000000
E 437 608 110.000000
E 438 468 94.000000
E 438 470 92.000000
E 438 498 95.000000
E 442 518 99.000000
E 442 614 103.000000
E 445 521 99.000000
E 446 623 111.000000
E 446 629 99.000000
E 453 516 104.000000
E 453 559 94.000000
E 455 537 96.000000
E 455 586 101.000000
E 455 626 99.000000
E 456 483 103.000000
E 458 503 104.000000
E 460 579 97.000000
E 460 627 95.000000
E 461 476 107.000000
E 461 560 92.000000
E 461 567 93.000000
E 461 573 110.000000
E 462 524 104.000000
E 467 572 99.000000
E 471 554 100.000000
E 471 583 92.000000
E 474 508 96.000000
E 475 512 102.000000
E 475 540 84.000000
E 475 588 100.000000
E 481 606 105.000000
E 484 555 105.000000
E 484 621 102.000000
E 486 604 91.000000
E 488 632 101.000000
E 489 576 95.000000
E 489 623 99.000000
E 490 614 104.000000
E 493 536 90.000000
E 494 502 109.000000
E 495 514 95.000000
E 495 617 103.000000
E 496 590 103.000000
E 496 619 94.000000
E 497 541 103.000000
E 497 613 100.000000
E 498 524 113.000000
E 498 551 96.000000
E 500 568 91.000000
E 505 533 100.000000
E 507 525 98.000000
E 508 518 96.000000
E 508 535 97.000000
E 511 591 96.000000
E 512 536 97.000000
E 517 537 110.000000
E 517 561 109.000000
E 518 605 93.000000
E 522 535 103.000000
E 523 597 105.000000
E 529 548 99.000000
E 530 568 104.000000
E 533 536 107.000000
E 533 542 97.000000
E 536 598 105.000000
E 540 551 108.000000
E 541 597 100.000000
E 544 602 101.000000
E 544 604 99.000000
E 547 554 106.000000
E 552 600 97.000000
E 555 602 95.000000
E 555 639 102.000000
E 557 566 100.000000
E 564 570 105.000000
E 564 613 90.000000
E 566 589 107.000000
E 566 620 102.000000
E 568 604 94.000000
E 578 590 105.000000
E 584 611 95.000000
E 585 613 109.000000
E 585 632 105.000000
E 595 625 92.000000
E 603 620 100.000000
E 605 630 99.000000
E 635 639 105.000000
END

SECTION Terminals
Terminals 9
TP 1 616.000000
TP 2 736.000000
TP 3 476.000000
TP 4 784.000000
TP 5 644.000000
TP 6 636.000000
TP 7 364.000000
TP 8 108.000000
TP 9 660.000000
END

EOF
